n=11;
m=51;
k=6;
initial_edges=[
(1, 6),
(1, 9),
(1, 5),
(1, 11),
(1, 2),
(1, 7),
(1, 10),
(1, 3),
(1, 4),
(1, 8),
(2, 5),
(2, 4),
(2, 11),
(2, 3),
(2, 7),
(2, 10),
(2, 9),
(2, 6),
(3, 11),
(3, 6),
(3, 4),
(3, 10),
(3, 5),
(3, 9),
(3, 8),
(3, 7),
(4, 7),
(4, 8),
(4, 10),
(4, 5),
(4, 6),
(4, 11),
(5, 8),
(5, 7),
(5, 10),
(5, 9),
(5, 11),
(6, 9),
(6, 7),
(6, 10),
(6, 8),
(6, 11),
(7, 9),
(7, 8),
(7, 11),
(8, 11),
(8, 10),
(8, 9),
(9, 10),
(9, 11),
(10, 11),
];